NumberOfSpecies4
%block ChemicalSpeciesLabel
       1       6    C                                                           
       2       6    D                                                           
       3       5    E                                                           
       4       7    F                                                           
%endblock ChemicalSpeciesLabel
NumberOfAtoms  76
LatticeConstant  1.00 Ang
%block LatticeVectors
     8.767500000     6.508180909     0.000000000
    -1.252500000    10.846968182     0.000000000
     0.000000000     0.000000000    35.000000000
%endblock LatticeVectors

AtomicCoordinatesFormat     Fractional
%block AtomicCoordinatesAndAtomicSpecies
     0.000000000     0.000000000     0.547857143       1
     0.140350877     0.982456140     0.547857143       2
     0.157894737     0.105263158     0.547857143       1
     0.298245614     0.087719298     0.547857143       2
     0.315789474     0.210526316     0.547857143       1
     0.456140351     0.192982456     0.547857143       2
     0.473684211     0.315789474     0.547857143       1
     0.614035088     0.298245614     0.547857143       2
     0.631578947     0.421052632     0.547857143       1
     0.771929825     0.403508772     0.547857143       2
     0.789473684     0.526315789     0.547857143       1
     0.929824561     0.508771930     0.547857143       2
     0.947368421     0.631578947     0.547857143       1
     0.087719298     0.614035088     0.547857143       2
     0.105263158     0.736842105     0.547857143       1
     0.245614035     0.719298246     0.547857143       2
     0.263157895     0.842105263     0.547857143       1
     0.403508772     0.824561404     0.547857143       2
     0.421052632     0.947368421     0.547857143       1
     0.561403509     0.929824561     0.547857143       2
     0.578947368     0.052631579     0.547857143       1
     0.719298246     0.035087719     0.547857143       2
     0.736842105     0.157894737     0.547857143       1
     0.877192982     0.140350877     0.547857143       2
     0.894736842     0.263157895     0.547857143       1
     0.035087719     0.245614035     0.547857143       2
     0.052631579     0.368421053     0.547857143       1
     0.192982456     0.350877193     0.547857143       2
     0.210526316     0.473684211     0.547857143       1
     0.350877193     0.456140351     0.547857143       2
     0.368421053     0.578947368     0.547857143       1
     0.508771930     0.561403509     0.547857143       2
     0.526315789     0.684210526     0.547857143       1
     0.666666667     0.666666667     0.547857143       2
     0.684210526     0.789473684     0.547857143       1
     0.824561404     0.771929825     0.547857143       2
     0.842105263     0.894736842     0.547857143       1
     0.982456140     0.877192982     0.547857143       2
     0.000000000     0.000000000     0.452142857       3
     0.122807018     0.017543860     0.452142857       4
     0.105263158     0.157894737     0.452142857       3
     0.228070175     0.175438596     0.452142857       4
     0.210526316     0.315789474     0.452142857       3
     0.333333333     0.333333333     0.452142857       4
     0.315789474     0.473684211     0.452142857       3
     0.438596491     0.491228070     0.452142857       4
     0.421052632     0.631578947     0.452142857       3
     0.543859649     0.649122807     0.452142857       4
     0.526315789     0.789473684     0.452142857       3
     0.649122807     0.807017544     0.452142857       4
     0.631578947     0.947368421     0.452142857       3
     0.754385965     0.964912281     0.452142857       4
     0.736842105     0.105263158     0.452142857       3
     0.859649123     0.122807018     0.452142857       4
     0.842105263     0.263157895     0.452142857       3
     0.964912281     0.280701754     0.452142857       4
     0.947368421     0.421052632     0.452142857       3
     0.070175439     0.438596491     0.452142857       4
     0.052631579     0.578947368     0.452142857       3
     0.175438596     0.596491228     0.452142857       4
     0.157894737     0.736842105     0.452142857       3
     0.280701754     0.754385965     0.452142857       4
     0.263157895     0.894736842     0.452142857       3
     0.385964912     0.912280702     0.452142857       4
     0.368421053     0.052631579     0.452142857       3
     0.491228070     0.070175439     0.452142857       4
     0.473684211     0.210526316     0.452142857       3
     0.596491228     0.228070175     0.452142857       4
     0.578947368     0.368421053     0.452142857       3
     0.701754386     0.385964912     0.452142857       4
     0.684210526     0.526315789     0.452142857       3
     0.807017544     0.543859649     0.452142857       4
     0.789473684     0.684210526     0.452142857       3
     0.912280702     0.701754386     0.452142857       4
     0.894736842     0.842105263     0.452142857       3
     0.017543860     0.859649123     0.452142857       4
%endblock AtomicCoordinatesAndAtomicSpecies
